# 1.2.1.18_group0_PF00171_30-85~1.2.1.8_group0_PF00171_30-85.sdpA
# All alignment positions within 5\AA of a ligand/cat site passing the sdpA filter.  Column indices start with 0.
160
162
170
236
258
260
261
263
265
428
468
474
477
